<number of tasks>
50

<cycle time>
1000

<order strength>
0.198


<task times>
1 150
2 26
3 233
4 86
5 177
6 41
7 155
8 43
9 112
10 78
11 99
12 102
13 157
14 243
15 288
16 44
17 136
18 41
19 91
20 59
21 26
22 123
23 160
24 204
25 21
26 136
27 136
28 27
29 190
30 172
31 235
32 35
33 121
34 49
35 182
36 93
37 92
38 159
39 84
40 57
41 181
42 106
43 112
44 63
45 159
46 120
47 26
48 45
49 324
50 131

<precedence relations>
1,11
1,14
2,23
3,10
4,8
5,9
6,7
6,12
6,13
7,15
7,18
7,21
7,23
8,24
9,19
9,20
11,17
11,22
12,23
14,16
17,28
17,38
18,24
18,26
19,27
19,29
23,25
23,41
24,31
24,32
26,32
29,30
29,44
30,34
31,33
31,35
31,36
32,33
32,37
33,41
33,45
34,38
34,45
36,40
36,44
37,39
37,42
37,43
38,46
39,49
40,50
41,47
42,47
42,48

<end>
